SCIP Status        : solving was interrupted [time limit reached]
Total Time         :    3600.01
  solving          :    3600.00
  presolving       :       0.44 (included in solving)
  reading          :       0.01
  copying          :       0.81 (24 #copies) (minimal 0.01, maximal 0.13, average 0.03)
Original Problem   :
  Problem name     : bbbenchmark/pw05_100.7.cut
  Variables        : 101 (100 binary, 0 integer, 0 implicit integer, 1 continuous)
  Constraints      : 1 initial, 1 maximal
  Objective        : minimize, 1 non-zeros (abs.min = 1, abs.max = 1)
Presolved Problem  :
  Problem name     : t_bbbenchmark/pw05_100.7.cut
  Variables        : 1860 (100 binary, 0 integer, 1745 implicit integer, 15 continuous)
  Constraints      : 1788 initial, 9643 maximal
  Objective        : minimize, 1 non-zeros (abs.min = 1, abs.max = 1)
  Nonzeros         : 8625 constraint, 202 clique table
Presolvers         :   ExecTime  SetupTime  Calls  FixedVars   AggrVars   ChgTypes  ChgBounds   AddHoles    DelCons    AddCons   ChgSides   ChgCoefs
  boundshift       :       0.00       0.00      0          0          0          0          0          0          0          0          0          0
  convertinttobin  :       0.00       0.00      0          0          0          0          0          0          0          0          0          0
  domcol           :       0.00       0.00      1          0          0          0          0          0          0          0          0          0
  dualagg          :       0.00       0.00      0          0          0          0          0          0          0          0          0          0
  dualcomp         :       0.00       0.00      1          0          0          0          0          0          0          0          0          0
  dualinfer        :       0.00       0.00      0          0          0          0          0          0          0          0          0          0
  dualsparsify     :       0.00       0.00      1          0          0          0          0          0          0          0          0          0
  gateextraction   :       0.00       0.00      0          0          0          0          0          0          0          0          0          0
  implics          :       0.00       0.00      2          0          0          0          0          0          0          0          0          0
  inttobinary      :       0.00       0.00      0          0          0          0          0          0          0          0          0          0
  qpkktref         :       0.00       0.00      0          0          0          0          0          0          0          0          0          0
  redvub           :       0.00       0.00      0          0          0          0          0          0          0          0          0          0
  sparsify         :       0.00       0.00      1          0          0          0          0          0          0          0          0          0
  stuffing         :       0.00       0.00      0          0          0          0          0          0          0          0          0          0
  trivial          :       0.00       0.00      4          0          0          0          0          0          0          0          0          0
  tworowbnd        :       0.00       0.00      0          0          0          0          0          0          0          0          0          0
  dualfix          :       0.00       0.00      4          0          0          0          0          0          0          0          0          0
  genvbounds       :       0.00       0.00      0          0          0          0          0          0          0          0          0          0
  probing          :       0.27       0.00      1          0          0          0          0          0          0          0          0          0
  pseudoobj        :       0.00       0.00      1          0          0          0          1          0          0          0          0          0
  symmetry         :       0.00       0.00      0          0          0          0          0          0          0          0          0          0
  vbounds          :       0.00       0.00      1          0          0          0          0          0          0          0          0          0
  varbound         :       0.00       0.00      2          0          0          0          0          0          0          0          0          0
  and              :       0.01       0.00      2          0          0          0          0          0          0          0          0          0
  linear           :       0.00       0.00      2          0          0          0          0          0          0          0          0          0
  logicor          :       0.00       0.00      0          0          0          0          0          0          0          0          0          0
  bounddisjunction :       0.00       0.00      0          0          0          0          0          0          0          0          0          0
  nonlinear        :       0.15       0.01      5          0          0          0          1          0          0       1787          0          0
  benders          :       0.00       0.00      0          0          0          0          0          0          0          0          0          0
  components       :       0.01       0.00      1          0          0          0          0          0          0          0          0          0
  root node        :          -          -      -          0          -          -         12          -          -          -          -          -
Constraints        :     Number  MaxNumber  #Separate #Propagate    #EnfoLP    #EnfoRelax  #EnfoPS    #Check   #ResProp    Cutoffs    DomReds       Cuts    Applied      Conss   Children
  benderslp        :          0          0          0          0      22759          0          0       5421          0          0          0          0          0          0          0
  integral         :          0          0          0          0      22759          0          0       5421          0          0       1488          0          0        717      44440
  varbound         :         14         14         22     214245          0          0          0        133          0          0       9228          0          0          0          0
  and              :       1745       1745      34782     254683          2          0          0        132     223671          2     463685      11310      10508          0          0
  linear           :         29+        36         22     254718          2          0          0        130        750          5      73106          0          0          0          0
  logicor          :          0+      7135          0      38341          0          0          0          0        154        104         15          0          0          0          0
  bounddisjunction :          0+       727          0      17955          0          0          0          0          0          5          1          0          0          0          0
  benders          :          0          0          0          0          2          0          0         20          0          0          0          0          0          0          0
  countsols        :          0          0          0          0          2          0          0         20          0          0          0          0          0          0          0
  components       :          0          0          0          0          0          0          0          0          0          0          0          0          0          0          0
Constraint Timings :  TotalTime  SetupTime   Separate  Propagate     EnfoLP     EnfoPS     EnfoRelax   Check    ResProp    SB-Prop
  benderslp        :       0.04       0.00       0.00       0.00       0.03       0.00       0.00       0.01       0.00       0.00
  integral         :      62.26       0.00       0.00       0.00      62.25       0.00       0.00       0.01       0.00       0.00
  varbound         :       0.26       0.00       0.00       0.26       0.00       0.00       0.00       0.00       0.00       0.00
  and              :      37.55       0.00      24.87      12.09       0.00       0.00       0.00       0.04       0.12       0.43
  linear           :       1.22       0.00       0.00       1.17       0.00       0.00       0.00       0.00       0.01       0.04
  logicor          :       1.67       0.00       0.00       1.67       0.00       0.00       0.00       0.00       0.00       0.00
  bounddisjunction :       0.31       0.00       0.00       0.30       0.00       0.00       0.00       0.00       0.00       0.01
  benders          :       0.00       0.00       0.00       0.00       0.00       0.00       0.00       0.00       0.00       0.00
  countsols        :       0.00       0.00       0.00       0.00       0.00       0.00       0.00       0.00       0.00       0.00
  components       :       0.07       0.00       0.00       0.07       0.00       0.00       0.00       0.00       0.00       0.00
Propagators        : #Propagate   #ResProp    Cutoffs    DomReds
  dualfix          :          4          0          0          0
  genvbounds       :          0          0          0          0
  nlobbt           :          0          0          0          0
  obbt             :          0          0          0          0
  probing          :          0          0          0          0
  pseudoobj        :     104520          0          0         14
  redcost          :      66654          0          0      55792
  rootredcost      :         11          0          0          0
  symmetry         :          0          0          0          0
  vbounds          :      25526          0          0          0
Propagator Timings :  TotalTime  SetupTime   Presolve  Propagate    ResProp    SB-Prop
  dualfix          :       0.01       0.00       0.00       0.01       0.00       0.00
  genvbounds       :       0.21       0.00       0.00       0.21       0.00       0.00
  nlobbt           :       0.00       0.00       0.00       0.00       0.00       0.00
  obbt             :       0.00       0.00       0.00       0.00       0.00       0.00
  probing          :       0.27       0.00       0.27       0.00       0.00       0.00
  pseudoobj        :       0.13       0.00       0.00       0.13       0.00       0.00
  redcost          :       4.46       0.00       0.00       4.45       0.00       0.01
  rootredcost      :       0.14       0.00       0.00       0.14       0.00       0.00
  symmetry         :       0.12       0.00       0.00       0.12       0.00       0.00
  vbounds          :       0.16       0.00       0.00       0.16       0.00       0.00
Conflict Analysis  :       Time      Calls    Success    DomReds  Conflicts   Literals    Reconvs ReconvLits   Dualrays   Nonzeros   LP Iters   (pool size: [10000,10000])
  propagation      :       0.00        111         81          -         90       57.2          0        0.0          -          -          -
  infeasible LP    :       0.05         21         21          -        862      137.8          0        0.0         25      205.9          0
  bound exceed. LP :      11.15       2792       2261          -      55344      108.9          1       40.0          0        0.0      26268
  strong branching :       0.00          0          0          -          0        0.0          0        0.0          -          -          0
  pseudo solution  :       0.00          0          0          -          0        0.0          0        0.0          -          -          -
  applied globally :       0.21          -          -          0      10968      123.8          -          -         25          -          -
  applied locally  :          -          -          -          0          0        0.0          -          -          0          -          -
Separators         :   ExecTime  SetupTime      Calls  RootCalls    Cutoffs    DomReds  FoundCuts ViaPoolAdd  DirectAdd    Applied ViaPoolApp  DirectApp      Conss
  cut pool         :       8.69          -      18593         43          -          -      37710    2711829          -          -          -          -          -    (maximal pool size:       3728)
  aggregation      :      54.94       0.00       7351         22          0          0       2452       6643          0       1500       1500          0          0
  > cmir           :          -          -          -          -          -          -          -       6634          0       1498       1498          0          -
  > flowcover      :          -          -          -          -          -          -          -          9          0          2          2          0          -
  > knapsackcover  :          -          -          -          -          -          -          -          0          0          0          0          0          -
  cgmip            :       0.00       0.00          0          0          0          0          0          0          0          0          0          0          0
  clique           :       0.00       0.00         22         22          0          0          0          0          0          0          0          0          0
  closecuts        :       0.00       0.00          0          0          0          0          0          0          0          0          0          0          0
  convexproj       :       0.00       0.00          0          0          0          0          0          0          0          0          0          0          0
  disjunctive      :       0.00       0.00          0          0          0          0          0          0          0          0          0          0          0
  eccuts           :       0.00       0.00          0          0          0          0          0          0          0          0          0          0          0
  gauge            :       0.00       0.00          0          0          0          0          0          0          0          0          0          0          0
  gomory           :       0.00       0.00          0          0          0          0          0          0          0          0          0          0          0
  > gomorymi       :          -          -          -          -          -          -          -          0          0          0          0          0          -
  > strongcg       :          -          -          -          -          -          -          -          0          0          0          0          0          -
  impliedbounds    :       0.53       0.00       7352         22          0          0         78         10          0          9          9          0          0
  interlattice     :       0.00       0.00          0          0          0          0          0          0          0          0          0          0          0
  interminor       :       0.00       0.00          0          0          0          0          0          0          0          0          0          0          0
  intersub         :       0.00       0.00          0          0          0          0          0          0          0          0          0          0          0
  intobj           :       0.00       0.00          0          0          0          0          0          0          0          0          0          0          0
  mcf              :       0.01       0.00          1          1          0          0          0          0          0          0          0          0          0
  minor            :       0.02       0.00          0          0          0          0          0          0          0          0          0          0          0
  mixing           :       0.06       0.00       7352         22          0          0          0          0          0          0          0          0          0
  oddcycle         :       0.00       0.00          0          0          0          0          0          0          0          0          0          0          0
  rapidlearning    :       0.00       0.00          0          0          0          0          0          0          0          0          0          0          0
  rlt              :       0.00       0.00         10         10          0          0          0          0          0          0          0          0          0
  zerohalf         :      96.99       0.00       6880         20          0          0      35180    2705176          0     155677     155677          0          0
Cutselectors       :   ExecTime  SetupTime      Calls  RootCalls   Selected     Forced   Filtered  RootSelec   RootForc   RootFilt 
  hybrid           :       2.59       0.00      15374         21     167694          0    2555445        186          0          0
Pricers            :   ExecTime  SetupTime      Calls       Vars
  problem variables:       0.00          -          0          0
Branching Rules    :   ExecTime  SetupTime   BranchLP  BranchExt   BranchPS    Cutoffs    DomReds       Cuts      Conss   Children
  allfullstrong    :       0.00       0.00          0          0          0          0          0          0          0          0
  cloud            :       0.00       0.00          0          0          0          0          0          0          0          0
  distribution     :       0.00       0.00          0          0          0          0          0          0          0          0
  fullstrong       :       0.00       0.00          0          0          0          0          0          0          0          0
  inference        :       0.00       0.00          0          0          0          0          0          0          0          0
  leastinf         :       0.00       0.00          0          0          0          0          0          0          0          0
  lookahead        :       0.00       0.00          0          0          0          0          0          0          0          0
  mostinf          :       0.00       0.00          0          0          0          0          0          0          0          0
  multaggr         :       0.00       0.00          0          0          0          0          0          0          0          0
  nodereopt        :       0.00       0.00          0          0          0          0          0          0          0          0
  pscost           :       0.00       0.00          0          0          0          0          0          0          0          0
  random           :       0.00       0.00          0          0          0          0          0          0          0          0
  relpscost        :      62.18       0.00      22757          0          0          0       1488          0        720      44440
  vanillafullstrong:       0.00       0.00          0          0          0          0          0          0          0          0
Primal Heuristics  :   ExecTime  SetupTime      Calls      Found       Best
  LP solutions     :       0.00          -          -          2          2
  relax solutions  :       0.00          -          -          0          0
  pseudo solutions :       0.00          -          -          0          0
  strong branching :       0.02          -          -          0          0
  actconsdiving    :       0.00       0.00          0          0          0
  adaptivediving   :       5.71       0.00         26          0          0
  alns             :       1.20       0.00         13          3          3
  bound            :       0.00       0.00          0          0          0
  clique           :       0.01       0.00          1          0          0
  coefdiving       :       0.00       0.00          0          0          0
  completesol      :       0.00       0.00          0          0          0
  conflictdiving   :      32.51       0.00        155          0          0
  crossover        :       0.50       0.00          1          1          1
  dins             :       0.00       0.00          0          0          0
  distributiondivin:      55.61       0.00        154          0          0
  dps              :       0.00       0.00          0          0          0
  dualval          :       0.00       0.00          0          0          0
  farkasdiving     :       0.00       0.00          0          0          0
  feaspump         :       0.15       0.00          1          1          1
  fixandinfer      :       0.00       0.00          0          0          0
  fracdiving       :      41.61       0.00        155          0          0
  gins             :       0.07       0.00          0          0          0
  guideddiving     :      34.38       0.00        155          1          1
  indicator        :       0.04       0.00          0          0          0
  indicatordiving  :       0.00       0.00          0          0          0
  intdiving        :       0.00       0.00          0          0          0
  intshifting      :       0.34       0.00         29          0          0
  linesearchdiving :      31.98       0.00        154          0          0
  localbranching   :       0.00       0.00          0          0          0
  locks            :       0.01       0.00          1          0          0
  lpface           :       0.05       0.00          0          0          0
  mpec             :     393.97       0.00         11          4          4
  multistart       :       0.00       0.00          0          0          0
  mutation         :       0.00       0.00          0          0          0
  nlpdiving        :      11.24       0.00         10          0          0
  objpscostdiving  :      55.03       0.00         17          1          0
  octane           :       0.00       0.00          0          0          0
  ofins            :       0.03       0.00          0          0          0
  oneopt           :       0.03       0.00         14          0          0
  padm             :       0.00       0.00          0          0          0
  proximity        :       0.00       0.00          0          0          0
  pscostdiving     :      44.68       0.00        155          1          1
  randrounding     :       0.52       0.00       5399          0          0
  rens             :       0.00       0.00          0          0          0
  reoptsols        :       0.00       0.00          0          0          0
  repair           :       0.00       0.00          0          0          0
  rins             :       0.82       0.00          9          0          0
  rootsoldiving    :      32.95       0.00         17          1          0
  rounding         :       0.82       0.00       2675          0          0
  shiftandpropagate:       0.00       0.00          0          0          0
  shifting         :      23.03       0.00       4722          1          1
  simplerounding   :       0.05       0.00          0          0          0
  subnlp           :      50.01       0.00          0          0          0
  trivial          :       0.00       0.00          2          2          2
  trivialnegation  :       0.00       0.00          0          0          0
  trustregion      :       0.00       0.00          0          0          0
  trysol           :       0.04       0.00          0          0          0
  twoopt           :       0.00       0.00          0          0          0
  undercover       :       2.19       0.00          1          1          1
  vbounds          :       0.00       0.00          0          0          0
  veclendiving     :      28.46       0.00        154          0          0
  zeroobj          :       0.00       0.00          0          0          0
  zirounding       :       0.32       0.00       1000          0          0
  other solutions  :          -          -          -          0          -
Diving (single)    :      Calls      Nodes   LP Iters Backtracks  Conflicts   MinDepth   MaxDepth   AvgDepth  RoundSols  NLeafSols  MinSolDpt  MaxSolDpt  AvgSolDpt
  actconsdiving    :          0          -          -          -          -          -          -          -          -          -          -          -          -
  coefdiving       :          0          -          -          -          -          -          -          -          -          -          -          -          -
  conflictdiving   :        155       6658     227590        156      10520         48         69       58.5          0          -          -          -          -
  distributiondivin:        154       5898     342978        174       6919         45         65       53.5          0          -          -          -          -
  farkasdiving     :          0          -          -          -          -          -          -          -          -          -          -          -          -
  fracdiving       :        155      43805     257510        116       1339         75        713      299.0          0          -          -          -          -
  guideddiving     :        155      36191     223919         13        642         84        730      250.9          0          1         86         86       86.0
  indicatordiving  :          0          -          -          -          -          -          -          -          -          -          -          -          -
  linesearchdiving :        154       8110     238936        153       9480         47        107       69.2          0          -          -          -          -
  pscostdiving     :        155       6894     316824        167       7896         51         72       60.3          0          1         66         66       66.0
  veclendiving     :        154       6748     209135        143      11338         48         78       60.0          0          -          -          -          -
Diving (adaptive)  :      Calls      Nodes   LP Iters Backtracks  Conflicts   MinDepth   MaxDepth   AvgDepth  RoundSols  NLeafSols  MinSolDpt  MaxSolDpt  AvgSolDpt
  actconsdiving    :          5        172       9816          6        211         49         56       52.0          0          -          -          -          -
  coefdiving       :          7        307       9275          6        475         55         63       59.1          0          -          -          -          -
  conflictdiving   :          0          -          -          -          -          -          -          -          -          -          -          -          -
  distributiondivin:          0          -          -          -          -          -          -          -          -          -          -          -          -
  farkasdiving     :          0          -          -          -          -          -          -          -          -          -          -          -          -
  fracdiving       :          2        371       2529          0          0        131        269      200.0          0          -          -          -          -
  guideddiving     :          0          -          -          -          -          -          -          -          -          -          -          -          -
  indicatordiving  :          0          -          -          -          -          -          -          -          -          -          -          -          -
  linesearchdiving :          4        188       5767          5        277         53         79       63.0          0          -          -          -          -
  pscostdiving     :          3        139       5520          3        194         64         68       65.7          0          -          -          -          -
  veclendiving     :          5        193       5609          3        301         44         79       58.6          0          -          -          -          -
Neighborhoods      :      Calls  SetupTime  SolveTime SolveNodes       Sols       Best       Exp3  EpsGreedy        UCB TgtFixRate  Opt  Inf Node Stal  Sol  Usr Othr Actv
  rens             :          1       0.03       0.00          1          0          0    0.00000   -1.00000    0.56398      0.700    0    1    0    0    0    0    0    1
  rins             :          1       0.02       0.01          5          0          0    0.00000   -1.00000    0.55998      0.700    0    1    0    0    0    0    0    1
  mutation         :          1       0.03       0.01          1          0          0    0.00000   -1.00000    0.56408      0.700    0    1    0    0    0    0    0    1
  localbranching   :          1       0.01       0.03         43          0          0    0.00000   -1.00000    0.52198      0.700    0    1    0    0    0    0    0    1
  crossover        :          1       0.02       0.02          4          0          0    0.00000   -1.00000    0.56098      0.700    0    1    0    0    0    0    0    1
  proximity        :          1       0.01       0.04         55          0          0    0.00000   -1.00000    0.50998      0.700    0    1    0    0    0    0    0    1
  zeroobjective    :          4       0.41       0.09        126          1          1    0.00000   -1.00000    0.57273      0.816    1    1    0    2    0    0    0    1
  dins             :          3       0.29       0.09        133          2          2    0.00000   -1.00000    0.58870      0.900    1    0    0    2    0    0    0    1
  trustregion      :          0       0.00       0.00          0          0          0    0.00000   -1.00000    1.00000      0.900    0    0    0    0    0    0    0    0
Expressions        :   #IntEval  IntEvalTi   #RevProp  RevPropTi    DomReds    Cutoffs  #Estimate  EstimTime  Branching  #Simplify SimplifyTi Simplified
  pow              :          0       0.00          0       0.00          0          0          0       0.00          0          0       0.00          0
  prod             :       9900       0.00          0       0.00          0          0          0       0.00          0       6695       0.00          0
  sum              :          8       0.00          2       0.00          0          0          0       0.00          0          3       0.01          2
  var              :       6389       0.00          0       0.00          0          0          0       0.00          0      15452       0.01          0
  varidx           :          0       0.00          0       0.00          0          0          0       0.00          0          0       0.00          0
LP                 :       Time      Calls Iterations  Iter/call   Iter/sec  Time-0-It Calls-0-It    ItLimit
  primal LP        :     101.82       4197          0       0.00       0.00     101.80       4197
  dual LP          :    2320.32      58574    9750678     184.68    4202.30       2.72       5777
  lex dual LP      :       0.00          0          0       0.00          -
  barrier LP       :       0.00          0          0       0.00          -       0.00          0
  resolve instable :       0.00          0          0       0.00          -
  diving/probing LP:     324.92       5791    2204374     380.66    6784.36
  strong branching :      47.84       1791     312710     174.60    6536.58          -          -        379
    (at root node) :          -         23       3152     137.04          -
  conflict analysis:       5.44       2646      26268       9.93    4828.68
NLP relaxation     :
  solve time       :      11.23 (10 calls)
  convexity        :  nonconvex (43 linear rows, 0 convex ineq., 0 nonconvex ineq., 1745 nonlinear eq. or two-sided ineq.)
NLP Solvers        :  #Problems  ProblemTi    #Solves  SolveTime      #Iter  Time/Iter      #Okay #TimeLimit #IterLimit #LObjLimit #Interrupt  #NumError #EvalError  #OutOfMem #LicenseEr #OtherTerm   #GlobOpt    #LocOpt  #Feasible #LocInfeas #GlobInfea #Unbounded   #Unknown
  ipopt            :         12       2.16         43     410.00       1513       0.27         43          0          0          0          0          0          0          0          0          0          0         21          0         12          0          0         10
B&B Tree           :
  number of runs   :          1
  nodes            :      36927 (22220 internal, 14707 leaves)
  feasible leaves  :          2
  infeas. leaves   :          4
  objective leaves :      14700
  nodes (total)    :      36927 (22220 internal, 14707 leaves)
  nodes left       :       7487
  max depth        :         56
  max depth (total):         56
  backtracks       :       8081 (21.9%)
  early backtracks :          0 (0.0%)
  nodes exc. ref.  :          0 (0.0%)
  delayed cutoffs  :          0
  repropagations   :         17 (57 domain reductions, 0 cutoffs)
  avg switch length:       4.68
  switching time   :     103.64
Estim. Tree Size   :      73908
Estimation Tree    : 44441 nodes (36954 visited, 22220 internal, 14734 leaves, 7487 open), weight: 0.0000 completed 0.1222
Estimations        :      estim      value      trend resolution     smooth
  wbe              : 2056022488877          -          -          -          -
  tree-profile     :         -1          -          -          -          -
  gap              :    1104636    0.67686    0.00001         16    1162263
  tree-weight      :      73908    0.00000    0.00000         16      73825
  leaf-frequency   :    2565714    0.39870    0.00000         16    2082238
  ssg              :     374889    0.80706   -0.00007         16     386475
  open-nodes       :      73908 7487.00000    3.37443         16      73825
Root Node          :
  First LP value   : -5.58545454545456e+00
  First LP Iters   :       1614 (9494.12 Iter/sec)
  First LP Time    :       0.17
  Final Dual Bound : -5.38121212121213e+00
  Final Root Iters :       2181
  Root LP Estimate : -2.76065599480955e+00
Solution           :
  Solutions found  :         19 (17 improvements)
  First Solution   : +1.00000000000000e+05   (in run 1, after 0 nodes, 0.02 seconds, depth 0, found by <trivial>)
  Gap First Sol.   :   infinite
  Gap Last Sol.    :      55.65 %
  Primal Bound     : -3.22505050505050e+00   (in run 1, after 5648 nodes, 489.04 seconds, depth 40, found by <alns>)
  Dual Bound       : -4.76468960019502e+00
  Gap              :      47.74 %
Integrals          :      Total       Avg%
  primal-dual      :  124900.35      34.69
  primal-ref       :          -          - (not evaluated)
  dual-ref         :          -          - (not evaluated)
